100
300
100
508 527
901 25
509 969
193 124
233 85
21 405
598 738
261 241
205 319
740 694
149 821
134 961
294 40
614 223
649 981
608 565
78 303
920 562
915 810
350 603
22 949
230 562
806 638
920 821
802 410
859 318
776 463
657 981
886 602
722 236
817 777
273 971
182 349
694 476
71 761
365 743
979 184
823 864
346 270
548 736
714 207
123 438
365 471
321 605
261 1000
604 554
222 183
141 899
270 686
819 486
503 388
295 625
587 762
66 405
513 853
796 725
465 781
836 702
793 574
612 461
702 348
163 237
911 981
826 784
637 686
325 391
64 309
574 335
165 597
635 386
740 761
314 305
369 59
736 585
906 390
319 309
933 743
349 330
690 282
491 740
635 213
707 824
105 197
318 991
224 416
869 698
675 912
460 785
338 89
530 213
362 762
524 350
717 333
898 142
466 56
381 965
75 113
573 67
684 179
725 949
204 427
508 527